p cnf 83 13
-17 28 3 49 -4 -46 59 0
-4 -36 -38 -9 -1 -26 -25 0
-20 2 -16 -8 38 -17 49 0
48 -12 5 -71 22 1 26 0
17 -3 -41 -34 62 63 -52 0
-10 31 2 -19 -65 -6 -27 0
-56 -31 -25 -21 33 7 54 0
18 57 -15 -3 1 -2 -69 0
38 -17 12 -4 19 8 18 0
20 -79 1 22 -28 60 9 0
8 -11 4 -10 64 29 3 0
59 -5 -14 46 30 -10 -2 0
-40 -1 -13 -9 31 3 6 0
